75
150
105	4
104	6
103	5
102	1
101	5
100	3
99	4
98	6
97	4
96	7
95	3
94	7
93	2
92	2
91	7
90	4
89	5
88	5
87	4
86	1
85	3
84	1
83	1
82	3
81	2
80	4
79	1
78	8
77	6
76	5
75	2
74	4
73	2
72	4
71	3
70	3
69	8
68	4
67	3
66	2
65	1
64	3
63	3
62	6
61	4
60	2
59	4
58	7
57	6
56	3
55	2
54	3
53	5
52	5
51	2
50	8
49	3
48	5
47	4
46	5
45	4
44	3
43	5
41	4
40	7
39	2
38	2
37	6
36	4
35	5
34	6
33	4
32	3
31	6
30	4
